Differential/diff_ivlbc_6.txt
107 seconds 
<gurobi.Var p0_0_2 (value 1.0)>
<gurobi.Var p0_0_5 (value 1.0)>
<gurobi.Var p0_1_10 (value 1.0)>
<gurobi.Var p0_1_11 (value 1.0)>
<gurobi.Var p0_2_0 (value 1.0)>
<gurobi.Var p0_2_1 (value 1.0)>
<gurobi.Var p0_2_3 (value 1.0)>
<gurobi.Var p0_2_4 (value 1.0)>
<gurobi.Var p0_2_6 (value 1.0)>
<gurobi.Var p0_2_7 (value 1.0)>
<gurobi.Var p0_3_0 (value 1.0)>
<gurobi.Var p0_3_1 (value 1.0)>
<gurobi.Var p0_3_4 (value 1.0)>
<gurobi.Var p0_3_7 (value 1.0)>
<gurobi.Var p0_3_13 (value 1.0)>
<gurobi.Var p0_3_14 (value 1.0)>
<gurobi.Var p0_4_2 (value 1.0)>
<gurobi.Var p0_4_5 (value 1.0)>
<gurobi.Var p0_5_10 (value 1.0)>
<gurobi.Var p0_5_11 (value 1.0)>
<gurobi.Var x0_11 (value 1.0)>
<gurobi.Var x0_23 (value 1.0)>
<gurobi.Var A0_2 (value 1.0)>
<gurobi.Var y0_10 (value 1.0)>
<gurobi.Var y0_11 (value 1.0)>
<gurobi.Var A0_5 (value 1.0)>
<gurobi.Var y0_22 (value 1.0)>
<gurobi.Var y0_23 (value 1.0)>
<gurobi.Var z0_42 (value 1.0)>
<gurobi.Var z0_43 (value 1.0)>
<gurobi.Var z0_46 (value 1.0)>
<gurobi.Var z0_47 (value 1.0)>
<gurobi.Var d0_69 (value 1.0)>
<gurobi.Var d0_71 (value 1.0)>
<gurobi.Var d0_77 (value 1.0)>
<gurobi.Var d0_79 (value 1.0)>
<gurobi.Var x1_42 (value 1.0)>
<gurobi.Var d0_85 (value 1.0)>
<gurobi.Var x1_43 (value 1.0)>
<gurobi.Var d0_87 (value 1.0)>
<gurobi.Var x1_46 (value 1.0)>
<gurobi.Var d0_93 (value 1.0)>
<gurobi.Var x1_47 (value 1.0)>
<gurobi.Var d0_95 (value 1.0)>
<gurobi.Var A1_10 (value 1.0)>
<gurobi.Var y1_42 (value 1.0)>
<gurobi.Var y1_43 (value 1.0)>
<gurobi.Var A1_11 (value 1.0)>
<gurobi.Var y1_46 (value 1.0)>
<gurobi.Var y1_47 (value 1.0)>
<gurobi.Var z1_10 (value 1.0)>
<gurobi.Var z1_11 (value 1.0)>
<gurobi.Var z1_22 (value 1.0)>
<gurobi.Var z1_23 (value 1.0)>
<gurobi.Var x2_2 (value 1.0)>
<gurobi.Var d1_5 (value 1.0)>
<gurobi.Var x2_3 (value 1.0)>
<gurobi.Var d1_7 (value 1.0)>
<gurobi.Var x2_6 (value 1.0)>
<gurobi.Var d1_13 (value 1.0)>
<gurobi.Var x2_7 (value 1.0)>
<gurobi.Var d1_15 (value 1.0)>
<gurobi.Var x2_14 (value 1.0)>
<gurobi.Var d1_29 (value 1.0)>
<gurobi.Var x2_15 (value 1.0)>
<gurobi.Var d1_31 (value 1.0)>
<gurobi.Var x2_18 (value 1.0)>
<gurobi.Var d1_37 (value 1.0)>
<gurobi.Var x2_19 (value 1.0)>
<gurobi.Var d1_39 (value 1.0)>
<gurobi.Var x2_26 (value 1.0)>
<gurobi.Var d1_53 (value 1.0)>
<gurobi.Var x2_27 (value 1.0)>
<gurobi.Var d1_55 (value 1.0)>
<gurobi.Var x2_30 (value 1.0)>
<gurobi.Var d1_61 (value 1.0)>
<gurobi.Var x2_31 (value 1.0)>
<gurobi.Var d1_63 (value 1.0)>
<gurobi.Var A2_0 (value 1.0)>
<gurobi.Var y2_3 (value 1.0)>
<gurobi.Var A2_1 (value 1.0)>
<gurobi.Var y2_5 (value 1.0)>
<gurobi.Var y2_6 (value 1.0)>
<gurobi.Var A2_3 (value 1.0)>
<gurobi.Var y2_15 (value 1.0)>
<gurobi.Var A2_4 (value 1.0)>
<gurobi.Var y2_17 (value 1.0)>
<gurobi.Var y2_18 (value 1.0)>
<gurobi.Var A2_6 (value 1.0)>
<gurobi.Var y2_27 (value 1.0)>
<gurobi.Var A2_7 (value 1.0)>
<gurobi.Var y2_31 (value 1.0)>
<gurobi.Var z2_3 (value 1.0)>
<gurobi.Var z2_7 (value 1.0)>
<gurobi.Var z2_17 (value 1.0)>
<gurobi.Var z2_18 (value 1.0)>
<gurobi.Var z2_29 (value 1.0)>
<gurobi.Var z2_30 (value 1.0)>
<gurobi.Var z2_55 (value 1.0)>
<gurobi.Var z2_59 (value 1.0)>
<gurobi.Var x3_3 (value 1.0)>
<gurobi.Var d2_7 (value 1.0)>
<gurobi.Var x3_7 (value 1.0)>
<gurobi.Var d2_15 (value 1.0)>
<gurobi.Var d2_23 (value 1.0)>
<gurobi.Var d2_31 (value 1.0)>
<gurobi.Var x3_17 (value 1.0)>
<gurobi.Var d2_35 (value 1.0)>
<gurobi.Var x3_18 (value 1.0)>
<gurobi.Var d2_37 (value 1.0)>
<gurobi.Var d2_43 (value 1.0)>
<gurobi.Var d2_45 (value 1.0)>
<gurobi.Var d2_51 (value 1.0)>
<gurobi.Var d2_53 (value 1.0)>
<gurobi.Var x3_29 (value 1.0)>
<gurobi.Var d2_59 (value 1.0)>
<gurobi.Var x3_30 (value 1.0)>
<gurobi.Var d2_61 (value 1.0)>
<gurobi.Var d2_103 (value 1.0)>
<gurobi.Var x3_55 (value 1.0)>
<gurobi.Var d2_111 (value 1.0)>
<gurobi.Var x3_59 (value 1.0)>
<gurobi.Var d2_119 (value 1.0)>
<gurobi.Var d2_127 (value 1.0)>
<gurobi.Var A3_0 (value 1.0)>
<gurobi.Var y3_2 (value 1.0)>
<gurobi.Var y3_3 (value 1.0)>
<gurobi.Var A3_1 (value 1.0)>
<gurobi.Var y3_6 (value 1.0)>
<gurobi.Var y3_7 (value 1.0)>
<gurobi.Var A3_4 (value 1.0)>
<gurobi.Var y3_18 (value 1.0)>
<gurobi.Var y3_19 (value 1.0)>
<gurobi.Var A3_7 (value 1.0)>
<gurobi.Var y3_30 (value 1.0)>
<gurobi.Var y3_31 (value 1.0)>
<gurobi.Var A3_13 (value 1.0)>
<gurobi.Var y3_54 (value 1.0)>
<gurobi.Var y3_55 (value 1.0)>
<gurobi.Var A3_14 (value 1.0)>
<gurobi.Var y3_58 (value 1.0)>
<gurobi.Var y3_59 (value 1.0)>
<gurobi.Var z3_2 (value 1.0)>
<gurobi.Var z3_3 (value 1.0)>
<gurobi.Var z3_6 (value 1.0)>
<gurobi.Var z3_7 (value 1.0)>
<gurobi.Var z3_14 (value 1.0)>
<gurobi.Var z3_15 (value 1.0)>
<gurobi.Var z3_18 (value 1.0)>
<gurobi.Var z3_19 (value 1.0)>
<gurobi.Var z3_26 (value 1.0)>
<gurobi.Var z3_27 (value 1.0)>
<gurobi.Var z3_30 (value 1.0)>
<gurobi.Var z3_31 (value 1.0)>
<gurobi.Var d3_5 (value 1.0)>
<gurobi.Var d3_7 (value 1.0)>
<gurobi.Var d3_13 (value 1.0)>
<gurobi.Var d3_15 (value 1.0)>
<gurobi.Var x4_10 (value 1.0)>
<gurobi.Var d3_20 (value 1.0)>
<gurobi.Var x4_11 (value 1.0)>
<gurobi.Var d3_22 (value 1.0)>
<gurobi.Var d3_29 (value 1.0)>
<gurobi.Var d3_31 (value 1.0)>
<gurobi.Var d3_37 (value 1.0)>
<gurobi.Var d3_39 (value 1.0)>
<gurobi.Var x4_22 (value 1.0)>
<gurobi.Var d3_44 (value 1.0)>
<gurobi.Var x4_23 (value 1.0)>
<gurobi.Var d3_46 (value 1.0)>
<gurobi.Var d3_53 (value 1.0)>
<gurobi.Var d3_55 (value 1.0)>
<gurobi.Var d3_61 (value 1.0)>
<gurobi.Var d3_63 (value 1.0)>
<gurobi.Var A4_2 (value 1.0)>
<gurobi.Var y4_11 (value 1.0)>
<gurobi.Var A4_5 (value 1.0)>
<gurobi.Var y4_23 (value 1.0)>
<gurobi.Var z4_43 (value 1.0)>
<gurobi.Var z4_47 (value 1.0)>
<gurobi.Var d4_71 (value 1.0)>
<gurobi.Var d4_79 (value 1.0)>
<gurobi.Var x5_43 (value 1.0)>
<gurobi.Var d4_87 (value 1.0)>
<gurobi.Var x5_47 (value 1.0)>
<gurobi.Var d4_95 (value 1.0)>
<gurobi.Var A5_10 (value 1.0)>
<gurobi.Var y5_42 (value 1.0)>
<gurobi.Var A5_11 (value 1.0)>
<gurobi.Var y5_46 (value 1.0)>
<gurobi.Var z5_10 (value 1.0)>
<gurobi.Var z5_22 (value 1.0)>
<gurobi.Var x6_2 (value 1.0)>
<gurobi.Var d5_5 (value 1.0)>
<gurobi.Var x6_6 (value 1.0)>
<gurobi.Var d5_13 (value 1.0)>
<gurobi.Var x6_14 (value 1.0)>
<gurobi.Var d5_29 (value 1.0)>
<gurobi.Var x6_18 (value 1.0)>
<gurobi.Var d5_37 (value 1.0)>
<gurobi.Var x6_26 (value 1.0)>
<gurobi.Var d5_53 (value 1.0)>
<gurobi.Var x6_30 (value 1.0)>
<gurobi.Var d5_61 (value 1.0)>
